desiredZ=[1];
nNurses = 261;
hours = 98;
demand = [35 50 37 21 8 62 48 53 64 29 30 56 17 40 24 5 51 9 57 55 23 19 37 7 35 60 18 18 25 27 8 32 30 63 4 48 26 58 49 52 13 52 38 31 4 39 60 20 42 14 32 51 58 23 2 38 3 12 17 6 55 16 58 20 44 42 51 38 11 16 57 50 44 60 49 24 11 61 52 55 24 22 16 8 56 15 29 56 31 2 40 21 3 0 13 30 60 35];
minHours = 15;
maxHours = 46;
maxConsec = 32;
maxPresence = 89;